90 4005
1 2 133
1 3 136
1 4 191
1 5 48
1 6 85
1 7 115
1 8 155
1 9 108
1 10 269
1 11 61
1 12 143
1 13 18
1 14 102
1 15 265
1 16 51
1 17 170
1 18 9
1 19 229
1 20 81
1 21 63
1 22 86
1 23 31
1 24 20
1 25 173
1 26 21
1 27 200
1 28 28
1 29 223
1 30 47
1 31 2
1 32 199
1 33 36
1 34 123
1 35 217
1 36 102
1 37 91
1 38 38
1 39 122
1 40 46
1 41 134
1 42 160
1 43 7
1 44 230
1 45 19
1 46 16
1 47 112
1 48 206
1 49 118
1 50 249
1 51 244
1 52 183
1 53 105
1 54 248
1 55 98
1 56 215
1 57 226
1 58 152
1 59 6
1 60 255
1 61 133
1 62 147
1 63 75
1 64 267
1 65 174
1 66 220
1 67 167
1 68 147
1 69 58
1 70 43
1 71 15
1 72 28
1 73 99
1 74 169
1 75 144
1 76 74
1 77 161
1 78 190
1 79 7
1 80 264
1 81 150
1 82 204
1 83 49
1 84 157
1 85 236
1 86 192
1 87 48
1 88 188
1 89 184
1 90 152
2 3 14
2 4 205
2 5 60
2 6 130
2 7 29
2 8 2
2 9 140
2 10 7
2 11 199
2 12 54
2 13 10
2 14 112
2 15 124
2 16 252
2 17 246
2 18 214
2 19 121
2 20 232
2 21 117
2 22 123
2 23 172
2 24 48
2 25 101
2 26 174
2 27 6
2 28 178
2 29 47
2 30 220
2 31 226
2 32 209
2 33 172
2 34 39
2 35 76
2 36 85
2 37 198
2 38 232
2 39 57
2 40 236
2 41 216
2 42 164
2 43 145
2 44 86
2 45 128
2 46 148
2 47 261
2 48 257
2 49 209
2 50 116
2 51 161
2 52 82
2 53 38
2 54 142
2 55 123
2 56 51
2 57 212
2 58 106
2 59 42
2 60 112
2 61 262
2 62 171
2 63 23
2 64 136
2 65 236
2 66 118
2 67 205
2 68 229
2 69 139
2 70 77
2 71 26
2 72 62
2 73 237
2 74 21
2 75 42
2 76 268
2 77 218
2 78 203
2 79 241
2 80 212
2 81 242
2 82 113
2 83 178
2 84 93
2 85 1
2 86 132
2 87 29
2 88 187
2 89 94
2 90 201
3 4 221
3 5 60
3 6 34
3 7 189
3 8 160
3 9 88
3 10 52
3 11 187
3 12 209
3 13 137
3 14 88
3 15 193
3 16 57
3 17 262
3 18 138
3 19 75
3 20 171
3 21 110
3 22 2
3 23 90
3 24 124
3 25 102
3 26 98
3 27 115
3 28 82
3 29 70
3 30 249
3 31 269
3 32 247
3 33 168
3 34 259
3 35 69
3 36 99
3 37 2
3 38 85
3 39 155
3 40 259
3 41 40
3 42 255
3 43 7
3 44 257
3 45 156
3 46 249
3 47 220
3 48 202
3 49 135
3 50 191
3 51 45
3 52 179
3 53 104
3 54 115
3 55 102
3 56 138
3 57 54
3 58 231
3 59 214
3 60 201
3 61 177
3 62 258
3 63 26
3 64 222
3 65 2
3 66 114
3 67 65
3 68 24
3 69 79
3 70 36
3 71 215
3 72 231
3 73 46
3 74 34
3 75 225
3 76 243
3 77 93
3 78 141
3 79 198
3 80 247
3 81 220
3 82 164
3 83 17
3 84 197
3 85 255
3 86 13
3 87 150
3 88 20
3 89 225
3 90 14
4 5 46
4 6 24
4 7 211
4 8 23
4 9 178
4 10 49
4 11 87
4 12 105
4 13 222
4 14 166
4 15 239
4 16 52
4 17 11
4 18 153
4 19 101
4 20 69
4 21 67
4 22 123
4 23 98
4 24 95
4 25 199
4 26 266
4 27 170
4 28 254
4 29 238
4 30 251
4 31 21
4 32 133
4 33 172
4 34 154
4 35 129
4 36 43
4 37 209
4 38 138
4 39 72
4 40 37
4 41 227
4 42 100
4 43 114
4 44 4
4 45 132
4 46 160
4 47 230
4 48 98
4 49 189
4 50 206
4 51 59
4 52 26
4 53 70
4 54 143
4 55 55
4 56 249
4 57 31
4 58 97
4 59 97
4 60 269
4 61 44
4 62 73
4 63 68
4 64 15
4 65 134
4 66 161
4 67 3
4 68 161
4 69 137
4 70 203
4 71 10
4 72 47
4 73 24
4 74 82
4 75 221
4 76 96
4 77 71
4 78 13
4 79 190
4 80 225
4 81 138
4 82 82
4 83 11
4 84 119
4 85 258
4 86 54
4 87 129
4 88 195
4 89 251
4 90 186
5 6 209
5 7 68
5 8 150
5 9 21
5 10 203
5 11 127
5 12 260
5 13 38
5 14 166
5 15 135
5 16 103
5 17 190
5 18 206
5 19 134
5 20 172
5 21 95
5 22 215
5 23 178
5 24 259
5 25 164
5 26 113
5 27 156
5 28 69
5 29 269
5 30 164
5 31 236
5 32 128
5 33 191
5 34 122
5 35 104
5 36 90
5 37 182
5 38 52
5 39 86
5 40 96
5 41 150
5 42 232
5 43 158
5 44 269
5 45 217
5 46 84
5 47 38
5 48 264
5 49 227
5 50 141
5 51 222
5 52 268
5 53 155
5 54 65
5 55 146
5 56 9
5 57 21
5 58 70
5 59 234
5 60 98
5 61 261
5 62 227
5 63 55
5 64 144
5 65 211
5 66 71
5 67 60
5 68 107
5 69 238
5 70 213
5 71 75
5 72 240
5 73 123
5 74 196
5 75 240
5 76 63
5 77 209
5 78 160
5 79 81
5 80 104
5 81 231
5 82 259
5 83 268
5 84 49
5 85 22
5 86 228
5 87 27
5 88 137
5 89 179
5 90 219
6 7 266
6 8 74
6 9 133
6 10 71
6 11 150
6 12 256
6 13 31
6 14 116
6 15 180
6 16 186
6 17 256
6 18 243
6 19 148
6 20 201
6 21 230
6 22 149
6 23 188
6 24 33
6 25 105
6 26 113
6 27 63
6 28 260
6 29 160
6 30 55
6 31 1
6 32 206
6 33 161
6 34 85
6 35 160
6 36 175
6 37 150
6 38 53
6 39 242
6 40 195
6 41 268
6 42 219
6 43 7
6 44 15
6 45 25
6 46 5
6 47 258
6 48 6
6 49 187
6 50 82
6 51 133
6 52 37
6 53 229
6 54 108
6 55 8
6 56 136
6 57 88
6 58 269
6 59 247
6 60 223
6 61 49
6 62 59
6 63 118
6 64 220
6 65 186
6 66 86
6 67 96
6 68 21
6 69 178
6 70 182
6 71 95
6 72 266
6 73 187
6 74 119
6 75 178
6 76 162
6 77 205
6 78 149
6 79 192
6 80 213
6 81 42
6 82 138
6 83 46
6 84 211
6 85 194
6 86 95
6 87 269
6 88 263
6 89 10
6 90 240
7 8 21
7 9 167
7 10 256
7 11 5
7 12 29
7 13 93
7 14 163
7 15 42
7 16 87
7 17 76
7 18 118
7 19 86
7 20 192
7 21 87
7 22 156
7 23 230
7 24 224
7 25 47
7 26 203
7 27 119
7 28 96
7 29 178
7 30 19
7 31 138
7 32 36
7 33 29
7 34 89
7 35 176
7 36 242
7 37 83
7 38 174
7 39 194
7 40 176
7 41 32
7 42 172
7 43 136
7 44 115
7 45 231
7 46 3
7 47 226
7 48 69
7 49 57
7 50 239
7 51 150
7 52 42
7 53 69
7 54 160
7 55 62
7 56 242
7 57 185
7 58 169
7 59 89
7 60 257
7 61 19
7 62 172
7 63 199
7 64 260
7 65 153
7 66 196
7 67 168
7 68 84
7 69 75
7 70 79
7 71 130
7 72 217
7 73 215
7 74 136
7 75 190
7 76 252
7 77 237
7 78 66
7 79 63
7 80 262
7 81 122
7 82 157
7 83 86
7 84 161
7 85 233
7 86 107
7 87 269
7 88 22
7 89 155
7 90 246
8 9 121
8 10 152
8 11 269
8 12 186
8 13 145
8 14 23
8 15 30
8 16 124
8 17 144
8 18 179
8 19 7
8 20 208
8 21 187
8 22 237
8 23 165
8 24 99
8 25 127
8 26 88
8 27 215
8 28 82
8 29 179
8 30 253
8 31 30
8 32 46
8 33 239
8 34 126
8 35 180
8 36 59
8 37 144
8 38 43
8 39 235
8 40 177
8 41 25
8 42 23
8 43 217
8 44 70
8 45 26
8 46 19
8 47 246
8 48 66
8 49 95
8 50 138
8 51 172
8 52 251
8 53 169
8 54 172
8 55 113
8 56 150
8 57 246
8 58 150
8 59 239
8 60 60
8 61 49
8 62 88
8 63 1
8 64 229
8 65 202
8 66 170
8 67 72
8 68 218
8 69 84
8 70 156
8 71 125
8 72 73
8 73 246
8 74 50
8 75 35
8 76 95
8 77 184
8 78 25
8 79 141
8 80 203
8 81 52
8 82 74
8 83 189
8 84 24
8 85 227
8 86 209
8 87 239
8 88 216
8 89 237
8 90 99
9 10 164
9 11 64
9 12 245
9 13 136
9 14 18
9 15 248
9 16 18
9 17 35
9 18 114
9 19 205
9 20 14
9 21 213
9 22 4
9 23 31
9 24 164
9 25 139
9 26 119
9 27 114
9 28 43
9 29 10
9 30 143
9 31 159
9 32 256
9 33 20
9 34 124
9 35 191
9 36 83
9 37 112
9 38 130
9 39 78
9 40 156
9 41 45
9 42 214
9 43 198
9 44 52
9 45 82
9 46 10
9 47 168
9 48 46
9 49 221
9 50 167
9 51 12
9 52 76
9 53 200
9 54 55
9 55 148
9 56 84
9 57 216
9 58 210
9 59 156
9 60 26
9 61 100
9 62 11
9 63 212
9 64 183
9 65 203
9 66 14
9 67 65
9 68 70
9 69 221
9 70 50
9 71 27
9 72 33
9 73 217
9 74 197
9 75 187
9 76 173
9 77 82
9 78 184
9 79 67
9 80 41
9 81 255
9 82 220
9 83 211
9 84 148
9 85 1
9 86 186
9 87 106
9 88 245
9 89 234
9 90 80
10 11 219
10 12 3
10 13 198
10 14 135
10 15 50
10 16 71
10 17 149
10 18 142
10 19 254
10 20 113
10 21 29
10 22 69
10 23 29
10 24 97
10 25 50
10 26 252
10 27 99
10 28 161
10 29 64
10 30 100
10 31 18
10 32 208
10 33 96
10 34 235
10 35 75
10 36 154
10 37 112
10 38 204
10 39 148
10 40 136
10 41 98
10 42 232
10 43 59
10 44 199
10 45 82
10 46 77
10 47 128
10 48 132
10 49 173
10 50 227
10 51 73
10 52 180
10 53 65
10 54 72
10 55 226
10 56 76
10 57 248
10 58 228
10 59 17
10 60 150
10 61 125
10 62 174
10 63 138
10 64 237
10 65 8
10 66 166
10 67 41
10 68 97
10 69 219
10 70 47
10 71 133
10 72 210
10 73 79
10 74 70
10 75 216
10 76 20
10 77 252
10 78 0
10 79 178
10 80 234
10 81 225
10 82 57
10 83 185
10 84 87
10 85 89
10 86 235
10 87 215
10 88 110
10 89 125
10 90 16
11 12 39
11 13 91
11 14 8
11 15 234
11 16 14
11 17 96
11 18 3
11 19 139
11 20 133
11 21 250
11 22 133
11 23 164
11 24 116
11 25 26
11 26 249
11 27 96
11 28 20
11 29 262
11 30 86
11 31 194
11 32 251
11 33 156
11 34 43
11 35 217
11 36 232
11 37 127
11 38 140
11 39 186
11 40 233
11 41 120
11 42 0
11 43 52
11 44 10
11 45 1
11 46 52
11 47 144
11 48 177
11 49 107
11 50 119
11 51 59
11 52 200
11 53 198
11 54 161
11 55 96
11 56 121
11 57 198
11 58 242
11 59 94
11 60 92
11 61 25
11 62 38
11 63 248
11 64 98
11 65 92
11 66 11
11 67 185
11 68 30
11 69 253
11 70 77
11 71 38
11 72 134
11 73 146
11 74 232
11 75 204
11 76 4
11 77 196
11 78 86
11 79 260
11 80 95
11 81 82
11 82 9
11 83 43
11 84 86
11 85 222
11 86 136
11 87 28
11 88 228
11 89 130
11 90 156
12 13 96
12 14 197
12 15 233
12 16 21
12 17 207
12 18 134
12 19 52
12 20 32
12 21 86
12 22 223
12 23 206
12 24 33
12 25 200
12 26 57
12 27 56
12 28 10
12 29 149
12 30 253
12 31 253
12 32 59
12 33 19
12 34 105
12 35 178
12 36 25
12 37 123
12 38 7
12 39 244
12 40 232
12 41 217
12 42 196
12 43 247
12 44 190
12 45 99
12 46 114
12 47 21
12 48 94
12 49 42
12 50 263
12 51 216
12 52 260
12 53 153
12 54 104
12 55 237
12 56 80
12 57 100
12 58 182
12 59 239
12 60 214
12 61 152
12 62 125
12 63 121
12 64 257
12 65 176
12 66 6
12 67 130
12 68 212
12 69 171
12 70 165
12 71 62
12 72 216
12 73 208
12 74 109
12 75 233
12 76 11
12 77 53
12 78 10
12 79 144
12 80 220
12 81 50
12 82 97
12 83 46
12 84 156
12 85 31
12 86 116
12 87 66
12 88 127
12 89 266
12 90 53
13 14 259
13 15 97
13 16 119
13 17 147
13 18 180
13 19 155
13 20 72
13 21 228
13 22 116
13 23 5
13 24 106
13 25 118
13 26 19
13 27 156
13 28 35
13 29 28
13 30 121
13 31 214
13 32 65
13 33 57
13 34 67
13 35 5
13 36 202
13 37 43
13 38 118
13 39 0
13 40 218
13 41 247
13 42 14
13 43 123
13 44 172
13 45 156
13 46 33
13 47 223
13 48 225
13 49 102
13 50 111
13 51 11
13 52 38
13 53 152
13 54 43
13 55 16
13 56 33
13 57 84
13 58 227
13 59 90
13 60 123
13 61 269
13 62 42
13 63 80
13 64 52
13 65 9
13 66 247
13 67 43
13 68 62
13 69 88
13 70 101
13 71 41
13 72 204
13 73 63
13 74 21
13 75 151
13 76 56
13 77 30
13 78 109
13 79 228
13 80 34
13 81 124
13 82 163
13 83 199
13 84 93
13 85 174
13 86 236
13 87 183
13 88 47
13 89 213
13 90 7
14 15 78
14 16 61
14 17 116
14 18 258
14 19 263
14 20 129
14 21 96
14 22 208
14 23 106
14 24 129
14 25 48
14 26 216
14 27 252
14 28 80
14 29 148
14 30 27
14 31 87
14 32 262
14 33 154
14 34 214
14 35 45
14 36 221
14 37 37
14 38 55
14 39 184
14 40 9
14 41 87
14 42 105
14 43 206
14 44 150
14 45 55
14 46 46
14 47 8
14 48 72
14 49 111
14 50 159
14 51 236
14 52 204
14 53 144
14 54 167
14 55 203
14 56 136
14 57 227
14 58 233
14 59 247
14 60 121
14 61 33
14 62 43
14 63 197
14 64 40
14 65 1
14 66 81
14 67 120
14 68 131
14 69 38
14 70 131
14 71 43
14 72 74
14 73 159
14 74 71
14 75 103
14 76 33
14 77 219
14 78 19
14 79 27
14 80 139
14 81 134
14 82 129
14 83 80
14 84 145
14 85 90
14 86 203
14 87 126
14 88 75
14 89 13
14 90 107
15 16 164
15 17 57
15 18 203
15 19 29
15 20 170
15 21 134
15 22 109
15 23 65
15 24 55
15 25 3
15 26 90
15 27 146
15 28 199
15 29 36
15 30 22
15 31 122
15 32 14
15 33 229
15 34 246
15 35 144
15 36 4
15 37 49
15 38 233
15 39 203
15 40 80
15 41 89
15 42 46
15 43 69
15 44 97
15 45 106
15 46 62
15 47 119
15 48 26
15 49 161
15 50 13
15 51 10
15 52 161
15 53 250
15 54 230
15 55 138
15 56 193
15 57 193
15 58 268
15 59 237
15 60 229
15 61 62
15 62 208
15 63 80
15 64 96
15 65 85
15 66 143
15 67 135
15 68 5
15 69 234
15 70 18
15 71 121
15 72 165
15 73 57
15 74 51
15 75 257
15 76 104
15 77 32
15 78 82
15 79 266
15 80 34
15 81 40
15 82 246
15 83 70
15 84 215
15 85 205
15 86 78
15 87 42
15 88 204
15 89 105
15 90 171
16 17 128
16 18 56
16 19 16
16 20 217
16 21 142
16 22 141
16 23 36
16 24 202
16 25 116
16 26 183
16 27 76
16 28 142
16 29 91
16 30 190
16 31 252
16 32 63
16 33 80
16 34 85
16 35 233
16 36 3
16 37 209
16 38 78
16 39 171
16 40 47
16 41 178
16 42 194
16 43 110
16 44 60
16 45 175
16 46 22
16 47 243
16 48 141
16 49 37
16 50 3
16 51 242
16 52 150
16 53 148
16 54 193
16 55 180
16 56 17
16 57 82
16 58 45
16 59 222
16 60 59
16 61 51
16 62 252
16 63 241
16 64 88
16 65 53
16 66 146
16 67 31
16 68 76
16 69 164
16 70 191
16 71 147
16 72 41
16 73 25
16 74 148
16 75 222
16 76 29
16 77 107
16 78 14
16 79 170
16 80 99
16 81 35
16 82 20
16 83 25
16 84 269
16 85 259
16 86 208
16 87 50
16 88 220
16 89 18
16 90 217
17 18 190
17 19 85
17 20 9
17 21 51
17 22 31
17 23 241
17 24 164
17 25 130
17 26 53
17 27 107
17 28 24
17 29 95
17 30 51
17 31 127
17 32 111
17 33 17
17 34 249
17 35 211
17 36 127
17 37 77
17 38 193
17 39 103
17 40 50
17 41 110
17 42 230
17 43 209
17 44 2
17 45 7
17 46 231
17 47 198
17 48 217
17 49 142
17 50 100
17 51 185
17 52 16
17 53 232
17 54 219
17 55 167
17 56 242
17 57 6
17 58 149
17 59 178
17 60 32
17 61 78
17 62 86
17 63 14
17 64 186
17 65 160
17 66 229
17 67 14
17 68 167
17 69 120
17 70 109
17 71 188
17 72 185
17 73 116
17 74 143
17 75 5
17 76 107
17 77 185
17 78 161
17 79 232
17 80 149
17 81 154
17 82 81
17 83 119
17 84 96
17 85 140
17 86 154
17 87 89
17 88 47
17 89 157
17 90 29
18 19 138
18 20 223
18 21 172
18 22 135
18 23 5
18 24 75
18 25 74
18 26 210
18 27 82
18 28 191
18 29 56
18 30 50
18 31 256
18 32 14
18 33 64
18 34 100
18 35 223
18 36 39
18 37 100
18 38 157
18 39 125
18 40 200
18 41 217
18 42 18
18 43 125
18 44 264
18 45 87
18 46 116
18 47 264
18 48 192
18 49 13
18 50 159
18 51 17
18 52 88
18 53 8
18 54 133
18 55 242
18 56 241
18 57 200
18 58 223
18 59 209
18 60 42
18 61 27
18 62 152
18 63 239
18 64 199
18 65 134
18 66 252
18 67 153
18 68 181
18 69 12
18 70 129
18 71 267
18 72 212
18 73 137
18 74 71
18 75 214
18 76 53
18 77 49
18 78 234
18 79 171
18 80 238
18 81 253
18 82 32
18 83 143
18 84 115
18 85 38
18 86 207
18 87 133
18 88 204
18 89 60
18 90 234
19 20 115
19 21 28
19 22 185
19 23 193
19 24 145
19 25 235
19 26 82
19 27 131
19 28 257
19 29 40
19 30 133
19 31 105
19 32 122
19 33 177
19 34 4
19 35 200
19 36 136
19 37 69
19 38 193
19 39 230
19 40 185
19 41 183
19 42 217
19 43 141
19 44 187
19 45 170
19 46 260
19 47 199
19 48 145
19 49 127
19 50 59
19 51 125
19 52 175
19 53 221
19 54 71
19 55 220
19 56 0
19 57 152
19 58 97
19 59 170
19 60 172
19 61 118
19 62 31
19 63 216
19 64 264
19 65 200
19 66 138
19 67 103
19 68 233
19 69 266
19 70 199
19 71 71
19 72 43
19 73 108
19 74 120
19 75 254
19 76 163
19 77 68
19 78 143
19 79 241
19 80 123
19 81 176
19 82 188
19 83 234
19 84 25
19 85 90
19 86 107
19 87 56
19 88 40
19 89 65
19 90 211
20 21 76
20 22 221
20 23 176
20 24 34
20 25 223
20 26 256
20 27 108
20 28 146
20 29 37
20 30 231
20 31 259
20 32 165
20 33 128
20 34 156
20 35 206
20 36 205
20 37 231
20 38 217
20 39 168
20 40 207
20 41 178
20 42 80
20 43 268
20 44 249
20 45 16
20 46 148
20 47 157
20 48 225
20 49 233
20 50 78
20 51 119
20 52 23
20 53 264
20 54 173
20 55 39
20 56 79
20 57 0
20 58 142
20 59 18
20 60 239
20 61 43
20 62 146
20 63 210
20 64 144
20 65 8
20 66 253
20 67 191
20 68 215
20 69 182
20 70 132
20 71 248
20 72 233
20 73 86
20 74 115
20 75 127
20 76 21
20 77 214
20 78 101
20 79 231
20 80 118
20 81 127
20 82 217
20 83 58
20 84 36
20 85 54
20 86 172
20 87 17
20 88 263
20 89 204
20 90 190
21 22 246
21 23 135
21 24 68
21 25 145
21 26 202
21 27 49
21 28 180
21 29 87
21 30 247
21 31 145
21 32 43
21 33 78
21 34 262
21 35 119
21 36 10
21 37 190
21 38 69
21 39 256
21 40 264
21 41 135
21 42 88
21 43 248
21 44 186
21 45 37
21 46 121
21 47 219
21 48 156
21 49 121
21 50 68
21 51 265
21 52 99
21 53 62
21 54 117
21 55 52
21 56 61
21 57 152
21 58 100
21 59 41
21 60 163
21 61 44
21 62 142
21 63 101
21 64 234
21 65 63
21 66 67
21 67 151
21 68 127
21 69 23
21 70 61
21 71 192
21 72 207
21 73 13
21 74 75
21 75 157
21 76 16
21 77 172
21 78 43
21 79 180
21 80 214
21 81 43
21 82 51
21 83 70
21 84 239
21 85 242
21 86 132
21 87 183
21 88 230
21 89 191
21 90 102
22 23 2
22 24 116
22 25 168
22 26 260
22 27 206
22 28 16
22 29 216
22 30 83
22 31 90
22 32 78
22 33 215
22 34 116
22 35 108
22 36 73
22 37 121
22 38 266
22 39 131
22 40 68
22 41 228
22 42 197
22 43 59
22 44 227
22 45 195
22 46 199
22 47 108
22 48 127
22 49 84
22 50 0
22 51 120
22 52 86
22 53 154
22 54 159
22 55 33
22 56 129
22 57 153
22 58 101
22 59 185
22 60 145
22 61 64
22 62 84
22 63 78
22 64 217
22 65 179
22 66 74
22 67 61
22 68 259
22 69 52
22 70 40
22 71 112
22 72 71
22 73 192
22 74 266
22 75 143
22 76 2
22 77 148
22 78 7
22 79 100
22 80 26
22 81 38
22 82 192
22 83 134
22 84 136
22 85 91
22 86 41
22 87 248
22 88 209
22 89 174
22 90 110
23 24 133
23 25 142
23 26 56
23 27 263
23 28 152
23 29 165
23 30 79
23 31 94
23 32 164
23 33 95
23 34 113
23 35 35
23 36 60
23 37 249
23 38 142
23 39 232
23 40 34
23 41 234
23 42 185
23 43 9
23 44 53
23 45 223
23 46 45
23 47 239
23 48 173
23 49 221
23 50 154
23 51 244
23 52 168
23 53 125
23 54 79
23 55 116
23 56 175
23 57 25
23 58 146
23 59 157
23 60 67
23 61 104
23 62 23
23 63 166
23 64 146
23 65 72
23 66 115
23 67 30
23 68 2
23 69 76
23 70 92
23 71 6
23 72 123
23 73 192
23 74 62
23 75 132
23 76 64
23 77 260
23 78 126
23 79 123
23 80 111
23 81 124
23 82 213
23 83 113
23 84 246
23 85 248
23 86 253
23 87 249
23 88 139
23 89 187
23 90 53
24 25 143
24 26 24
24 27 91
24 28 210
24 29 39
24 30 238
24 31 266
24 32 224
24 33 38
24 34 186
24 35 212
24 36 184
24 37 98
24 38 86
24 39 27
24 40 207
24 41 31
24 42 179
24 43 86
24 44 17
24 45 31
24 46 64
24 47 175
24 48 81
24 49 176
24 50 163
24 51 80
24 52 106
24 53 100
24 54 201
24 55 157
24 56 145
24 57 209
24 58 77
24 59 90
24 60 143
24 61 212
24 62 176
24 63 254
24 64 207
24 65 176
24 66 126
24 67 50
24 68 118
24 69 61
24 70 239
24 71 80
24 72 58
24 73 103
24 74 6
24 75 187
24 76 9
24 77 3
24 78 194
24 79 59
24 80 107
24 81 221
24 82 62
24 83 204
24 84 229
24 85 176
24 86 46
24 87 62
24 88 40
24 89 33
24 90 235
25 26 132
25 27 238
25 28 213
25 29 80
25 30 31
25 31 58
25 32 127
25 33 205
25 34 200
25 35 61
25 36 87
25 37 91
25 38 138
25 39 130
25 40 7
25 41 125
25 42 234
25 43 6
25 44 204
25 45 55
25 46 241
25 47 57
25 48 219
25 49 86
25 50 98
25 51 160
25 52 247
25 53 66
25 54 93
25 55 176
25 56 114
25 57 249
25 58 45
25 59 88
25 60 186
25 61 79
25 62 110
25 63 153
25 64 137
25 65 74
25 66 200
25 67 60
25 68 220
25 69 200
25 70 181
25 71 96
25 72 220
25 73 57
25 74 42
25 75 253
25 76 69
25 77 258
25 78 208
25 79 9
25 80 99
25 81 174
25 82 41
25 83 92
25 84 42
25 85 92
25 86 62
25 87 45
25 88 266
25 89 98
25 90 8
26 27 102
26 28 61
26 29 234
26 30 110
26 31 266
26 32 154
26 33 158
26 34 145
26 35 260
26 36 34
26 37 171
26 38 228
26 39 9
26 40 201
26 41 263
26 42 106
26 43 160
26 44 173
26 45 176
26 46 24
26 47 88
26 48 66
26 49 196
26 50 57
26 51 251
26 52 255
26 53 63
26 54 27
26 55 253
26 56 224
26 57 215
26 58 257
26 59 82
26 60 104
26 61 46
26 62 227
26 63 43
26 64 202
26 65 119
26 66 66
26 67 29
26 68 228
26 69 195
26 70 120
26 71 241
26 72 58
26 73 12
26 74 75
26 75 267
26 76 55
26 77 195
26 78 69
26 79 97
26 80 234
26 81 19
26 82 59
26 83 254
26 84 198
26 85 237
26 86 99
26 87 31
26 88 213
26 89 126
26 90 229
27 28 88
27 29 187
27 30 113
27 31 50
27 32 195
27 33 214
27 34 250
27 35 240
27 36 111
27 37 21
27 38 37
27 39 89
27 40 245
27 41 218
27 42 10
27 43 233
27 44 118
27 45 164
27 46 248
27 47 37
27 48 23
27 49 136
27 50 213
27 51 140
27 52 141
27 53 185
27 54 199
27 55 11
27 56 117
27 57 35
27 58 237
27 59 269
27 60 144
27 61 147
27 62 257
27 63 214
27 64 138
27 65 269
27 66 139
27 67 0
27 68 18
27 69 225
27 70 242
27 71 88
27 72 5
27 73 27
27 74 67
27 75 124
27 76 110
27 77 194
27 78 141
27 79 8
27 80 120
27 81 46
27 82 83
27 83 56
27 84 60
27 85 99
27 86 79
27 87 93
27 88 207
27 89 0
27 90 4
28 29 75
28 30 181
28 31 5
28 32 123
28 33 9
28 34 118
28 35 71
28 36 10
28 37 172
28 38 207
28 39 263
28 40 7
28 41 64
28 42 161
28 43 234
28 44 176
28 45 63
28 46 92
28 47 25
28 48 113
28 49 123
28 50 65
28 51 263
28 52 6
28 53 234
28 54 180
28 55 149
28 56 196
28 57 161
28 58 106
28 59 105
28 60 19
28 61 60
28 62 164
28 63 71
28 64 144
28 65 98
28 66 241
28 67 122
28 68 155
28 69 41
28 70 25
28 71 79
28 72 60
28 73 25
28 74 38
28 75 201
28 76 264
28 77 175
28 78 267
28 79 27
28 80 91
28 81 80
28 82 166
28 83 117
28 84 227
28 85 148
28 86 93
28 87 127
28 88 150
28 89 120
28 90 141
29 30 16
29 31 66
29 32 123
29 33 244
29 34 261
29 35 204
29 36 58
29 37 204
29 38 149
29 39 133
29 40 208
29 41 215
29 42 159
29 43 10
29 44 129
29 45 184
29 46 101
29 47 201
29 48 213
29 49 5
29 50 224
29 51 77
29 52 239
29 53 96
29 54 216
29 55 35
29 56 256
29 57 77
29 58 120
29 59 188
29 60 60
29 61 27
29 62 39
29 63 194
29 64 134
29 65 129
29 66 25
29 67 211
29 68 129
29 69 123
29 70 146
29 71 101
29 72 137
29 73 50
29 74 134
29 75 179
29 76 153
29 77 114
29 78 123
29 79 249
29 80 31
29 81 238
29 82 151
29 83 10
29 84 8
29 85 244
29 86 248
29 87 158
29 88 101
29 89 89
29 90 211
30 31 161
30 32 31
30 33 68
30 34 93
30 35 162
30 36 113
30 37 92
30 38 54
30 39 117
30 40 160
30 41 72
30 42 16
30 43 73
30 44 57
30 45 60
30 46 175
30 47 158
30 48 63
30 49 26
30 50 7
30 51 6
30 52 28
30 53 89
30 54 169
30 55 207
30 56 85
30 57 244
30 58 138
30 59 44
30 60 220
30 61 11
30 62 77
30 63 125
30 64 29
30 65 254
30 66 100
30 67 57
30 68 147
30 69 184
30 70 140
30 71 161
30 72 85
30 73 121
30 74 94
30 75 166
30 76 164
30 77 2
30 78 119
30 79 104
30 80 248
30 81 179
30 82 26
30 83 17
30 84 20
30 85 148
30 86 172
30 87 49
30 88 43
30 89 145
30 90 60
31 32 95
31 33 58
31 34 190
31 35 66
31 36 93
31 37 135
31 38 20
31 39 255
31 40 75
31 41 221
31 42 44
31 43 186
31 44 190
31 45 203
31 46 6
31 47 117
31 48 134
31 49 173
31 50 205
31 51 249
31 52 39
31 53 155
31 54 40
31 55 127
31 56 188
31 57 153
31 58 223
31 59 158
31 60 247
31 61 24
31 62 259
31 63 40
31 64 136
31 65 238
31 66 29
31 67 262
31 68 237
31 69 238
31 70 153
31 71 73
31 72 71
31 73 126
31 74 22
31 75 204
31 76 136
31 77 74
31 78 191
31 79 250
31 80 165
31 81 130
31 82 36
31 83 150
31 84 112
31 85 226
31 86 10
31 87 17
31 88 4
31 89 13
31 90 129
32 33 138
32 34 168
32 35 185
32 36 136
32 37 8
32 38 221
32 39 126
32 40 249
32 41 97
32 42 189
32 43 68
32 44 80
32 45 172
32 46 62
32 47 49
32 48 94
32 49 210
32 50 255
32 51 59
32 52 257
32 53 127
32 54 47
32 55 212
32 56 14
32 57 88
32 58 195
32 59 45
32 60 3
32 61 78
32 62 176
32 63 133
32 64 196
32 65 205
32 66 118
32 67 30
32 68 1
32 69 195
32 70 112
32 71 253
32 72 175
32 73 54
32 74 54
32 75 130
32 76 66
32 77 210
32 78 165
32 79 35
32 80 99
32 81 198
32 82 18
32 83 111
32 84 133
32 85 231
32 86 149
32 87 40
32 88 252
32 89 258
32 90 165
33 34 98
33 35 33
33 36 65
33 37 64
33 38 211
33 39 101
33 40 27
33 41 214
33 42 117
33 43 225
33 44 197
33 45 254
33 46 32
33 47 257
33 48 167
33 49 140
33 50 2
33 51 69
33 52 124
33 53 5
33 54 112
33 55 111
33 56 247
33 57 218
33 58 162
33 59 145
33 60 44
33 61 203
33 62 93
33 63 269
33 64 263
33 65 18
33 66 222
33 67 229
33 68 234
33 69 53
33 70 97
33 71 134
33 72 140
33 73 231
33 74 120
33 75 217
33 76 243
33 77 102
33 78 3
33 79 239
33 80 171
33 81 36
33 82 184
33 83 226
33 84 93
33 85 10
33 86 189
33 87 243
33 88 10
33 89 154
33 90 215
34 35 248
34 36 96
34 37 209
34 38 38
34 39 121
34 40 4
34 41 68
34 42 29
34 43 159
34 44 157
34 45 173
34 46 247
34 47 45
34 48 215
34 49 218
34 50 101
34 51 124
34 52 245
34 53 174
34 54 235
34 55 231
34 56 154
34 57 0
34 58 110
34 59 227
34 60 32
34 61 267
34 62 57
34 63 2
34 64 66
34 65 121
34 66 32
34 67 58
34 68 157
34 69 145
34 70 82
34 71 102
34 72 143
34 73 182
34 74 135
34 75 78
34 76 61
34 77 59
34 78 24
34 79 75
34 80 236
34 81 186
34 82 113
34 83 230
34 84 264
34 85 134
34 86 65
34 87 207
34 88 197
34 89 18
34 90 211
35 36 84
35 37 61
35 38 157
35 39 206
35 40 132
35 41 162
35 42 50
35 43 121
35 44 127
35 45 234
35 46 231
35 47 167
35 48 27
35 49 231
35 50 23
35 51 168
35 52 69
35 53 16
35 54 18
35 55 206
35 56 146
35 57 40
35 58 141
35 59 182
35 60 51
35 61 14
35 62 113
35 63 176
35 64 32
35 65 234
35 66 119
35 67 73
35 68 116
35 69 194
35 70 219
35 71 227
35 72 179
35 73 149
35 74 56
35 75 3
35 76 153
35 77 212
35 78 248
35 79 149
35 80 94
35 81 44
35 82 254
35 83 173
35 84 130
35 85 71
35 86 136
35 87 127
35 88 261
35 89 157
35 90 268
36 37 232
36 38 167
36 39 51
36 40 123
36 41 205
36 42 42
36 43 95
36 44 115
36 45 100
36 46 87
36 47 31
36 48 144
36 49 164
36 50 183
36 51 149
36 52 73
36 53 213
36 54 168
36 55 267
36 56 230
36 57 75
36 58 114
36 59 147
36 60 214
36 61 268
36 62 218
36 63 18
36 64 96
36 65 187
36 66 234
36 67 10
36 68 4
36 69 216
36 70 213
36 71 10
36 72 53
36 73 44
36 74 94
36 75 168
36 76 231
36 77 265
36 78 84
36 79 180
36 80 14
36 81 120
36 82 109
36 83 169
36 84 207
36 85 209
36 86 112
36 87 177
36 88 81
36 89 193
36 90 145
37 38 208
37 39 110
37 40 4
37 41 4
37 42 162
37 43 238
37 44 267
37 45 176
37 46 229
37 47 87
37 48 194
37 49 221
37 50 130
37 51 11
37 52 157
37 53 243
37 54 195
37 55 222
37 56 32
37 57 52
37 58 201
37 59 41
37 60 102
37 61 110
37 62 103
37 63 44
37 64 47
37 65 194
37 66 31
37 67 138
37 68 92
37 69 87
37 70 61
37 71 99
37 72 21
37 73 63
37 74 249
37 75 50
37 76 133
37 77 39
37 78 114
37 79 56
37 80 241
37 81 91
37 82 16
37 83 61
37 84 96
37 85 176
37 86 101
37 87 198
37 88 192
37 89 4
37 90 194
38 39 225
38 40 228
38 41 78
38 42 87
38 43 199
38 44 171
38 45 78
38 46 242
38 47 161
38 48 241
38 49 21
38 50 260
38 51 162
38 52 241
38 53 219
38 54 18
38 55 16
38 56 255
38 57 188
38 58 128
38 59 87
38 60 235
38 61 152
38 62 44
38 63 50
38 64 80
38 65 90
38 66 83
38 67 261
38 68 150
38 69 207
38 70 74
38 71 81
38 72 164
38 73 93
38 74 191
38 75 116
38 76 140
38 77 176
38 78 40
38 79 261
38 80 102
38 81 66
38 82 90
38 83 7
38 84 119
38 85 203
38 86 18
38 87 74
38 88 155
38 89 21
38 90 253
39 40 135
39 41 4
39 42 241
39 43 23
39 44 73
39 45 183
39 46 110
39 47 90
39 48 208
39 49 61
39 50 136
39 51 125
39 52 219
39 53 131
39 54 36
39 55 141
39 56 235
39 57 153
39 58 222
39 59 105
39 60 188
39 61 20
39 62 3
39 63 79
39 64 253
39 65 59
39 66 225
39 67 55
39 68 183
39 69 219
39 70 76
39 71 182
39 72 100
39 73 93
39 74 189
39 75 245
39 76 34
39 77 59
39 78 237
39 79 82
39 80 228
39 81 108
39 82 257
39 83 71
39 84 120
39 85 200
39 86 238
39 87 71
39 88 229
39 89 147
39 90 130
40 41 11
40 42 106
40 43 6
40 44 214
40 45 154
40 46 128
40 47 219
40 48 177
40 49 253
40 50 187
40 51 146
40 52 169
40 53 0
40 54 114
40 55 19
40 56 221
40 57 61
40 58 12
40 59 144
40 60 119
40 61 94
40 62 34
40 63 134
40 64 258
40 65 145
40 66 34
40 67 5
40 68 232
40 69 107
40 70 32
40 71 261
40 72 6
40 73 24
40 74 182
40 75 153
40 76 81
40 77 67
40 78 101
40 79 200
40 80 249
40 81 197
40 82 130
40 83 67
40 84 75
40 85 85
40 86 219
40 87 65
40 88 119
40 89 98
40 90 46
41 42 225
41 43 110
41 44 18
41 45 255
41 46 197
41 47 71
41 48 97
41 49 126
41 50 193
41 51 255
41 52 248
41 53 32
41 54 194
41 55 246
41 56 53
41 57 3
41 58 242
41 59 4
41 60 224
41 61 203
41 62 170
41 63 30
41 64 54
41 65 192
41 66 20
41 67 196
41 68 120
41 69 83
41 70 222
41 71 29
41 72 27
41 73 40
41 74 187
41 75 108
41 76 199
41 77 179
41 78 212
41 79 87
41 80 100
41 81 163
41 82 121
41 83 90
41 84 28
41 85 7
41 86 123
41 87 254
41 88 95
41 89 63
41 90 133
42 43 269
42 44 179
42 45 211
42 46 10
42 47 95
42 48 198
42 49 116
42 50 246
42 51 81
42 52 213
42 53 263
42 54 258
42 55 151
42 56 260
42 57 88
42 58 253
42 59 31
42 60 203
42 61 4
42 62 103
42 63 115
42 64 137
42 65 70
42 66 52
42 67 31
42 68 107
42 69 256
42 70 59
42 71 143
42 72 225
42 73 155
42 74 113
42 75 149
42 76 265
42 77 52
42 78 19
42 79 210
42 80 139
42 81 99
42 82 159
42 83 163
42 84 158
42 85 234
42 86 174
42 87 253
42 88 77
42 89 172
42 90 10
43 44 240
43 45 131
43 46 176
43 47 206
43 48 237
43 49 107
43 50 46
43 51 245
43 52 204
43 53 186
43 54 143
43 55 74
43 56 231
43 57 230
43 58 204
43 59 63
43 60 98
43 61 122
43 62 117
43 63 262
43 64 212
43 65 39
43 66 259
43 67 180
43 68 99
43 69 27
43 70 226
43 71 93
43 72 96
43 73 42
43 74 68
43 75 222
43 76 162
43 77 268
43 78 261
43 79 85
43 80 259
43 81 122
43 82 104
43 83 146
43 84 88
43 85 261
43 86 205
43 87 76
43 88 72
43 89 83
43 90 69
44 45 72
44 46 235
44 47 51
44 48 66
44 49 177
44 50 246
44 51 12
44 52 235
44 53 30
44 54 1
44 55 29
44 56 1
44 57 89
44 58 244
44 59 68
44 60 157
44 61 241
44 62 252
44 63 78
44 64 16
44 65 250
44 66 23
44 67 174
44 68 53
44 69 227
44 70 112
44 71 235
44 72 220
44 73 27
44 74 185
44 75 18
44 76 165
44 77 246
44 78 184
44 79 48
44 80 256
44 81 10
44 82 157
44 83 162
44 84 150
44 85 81
44 86 174
44 87 86
44 88 108
44 89 225
44 90 56
45 46 106
45 47 32
45 48 85
45 49 85
45 50 199
45 51 191
45 52 196
45 53 265
45 54 158
45 55 117
45 56 127
45 57 165
45 58 180
45 59 201
45 60 151
45 61 8
45 62 71
45 63 263
45 64 266
45 65 46
45 66 51
45 67 100
45 68 232
45 69 19
45 70 236
45 71 75
45 72 61
45 73 118
45 74 172
45 75 40
45 76 102
45 77 47
45 78 254
45 79 266
45 80 139
45 81 184
45 82 67
45 83 144
45 84 253
45 85 180
45 86 263
45 87 205
45 88 104
45 89 51
45 90 11
46 47 259
46 48 231
46 49 79
46 50 139
46 51 173
46 52 84
46 53 88
46 54 63
46 55 83
46 56 38
46 57 31
46 58 27
46 59 194
46 60 54
46 61 12
46 62 218
46 63 141
46 64 256
46 65 47
46 66 118
46 67 204
46 68 68
46 69 64
46 70 139
46 71 7
46 72 92
46 73 181
46 74 54
46 75 225
46 76 28
46 77 104
46 78 223
46 79 108
46 80 192
46 81 211
46 82 22
46 83 16
46 84 65
46 85 8
46 86 267
46 87 196
46 88 156
46 89 80
46 90 209
47 48 138
47 49 269
47 50 38
47 51 152
47 52 256
47 53 101
47 54 196
47 55 131
47 56 15
47 57 147
47 58 263
47 59 212
47 60 269
47 61 22
47 62 39
47 63 8
47 64 263
47 65 89
47 66 97
47 67 81
47 68 118
47 69 133
47 70 5
47 71 179
47 72 152
47 73 167
47 74 220
47 75 223
47 76 96
47 77 166
47 78 233
47 79 105
47 80 44
47 81 244
47 82 224
47 83 264
47 84 199
47 85 18
47 86 249
47 87 19
47 88 157
47 89 78
47 90 27
48 49 240
48 50 195
48 51 98
48 52 181
48 53 25
48 54 183
48 55 133
48 56 79
48 57 100
48 58 222
48 59 165
48 60 44
48 61 28
48 62 153
48 63 12
48 64 154
48 65 169
48 66 185
48 67 210
48 68 199
48 69 163
48 70 26
48 71 124
48 72 136
48 73 259
48 74 26
48 75 178
48 76 245
48 77 224
48 78 260
48 79 196
48 80 130
48 81 97
48 82 140
48 83 1
48 84 186
48 85 114
48 86 68
48 87 101
48 88 42
48 89 100
48 90 174
49 50 10
49 51 224
49 52 41
49 53 201
49 54 57
49 55 56
49 56 157
49 57 29
49 58 89
49 59 115
49 60 152
49 61 168
49 62 113
49 63 241
49 64 137
49 65 246
49 66 67
49 67 216
49 68 27
49 69 166
49 70 219
49 71 76
49 72 206
49 73 48
49 74 211
49 75 102
49 76 57
49 77 214
49 78 262
49 79 88
49 80 56
49 81 260
49 82 110
49 83 164
49 84 226
49 85 162
49 86 52
49 87 217
49 88 137
49 89 126
49 90 215
50 51 15
50 52 146
50 53 131
50 54 65
50 55 51
50 56 36
50 57 100
50 58 112
50 59 99
50 60 260
50 61 106
50 62 14
50 63 182
50 64 78
50 65 257
50 66 38
50 67 222
50 68 103
50 69 252
50 70 33
50 71 166
50 72 110
50 73 208
50 74 8
50 75 234
50 76 17
50 77 12
50 78 260
50 79 47
50 80 50
50 81 170
50 82 106
50 83 68
50 84 8
50 85 43
50 86 51
50 87 29
50 88 137
50 89 33
50 90 225
51 52 13
51 53 222
51 54 173
51 55 61
51 56 236
51 57 126
51 58 74
51 59 54
51 60 27
51 61 116
51 62 198
51 63 198
51 64 228
51 65 126
51 66 21
51 67 34
51 68 63
51 69 135
51 70 29
51 71 131
51 72 172
51 73 6
51 74 25
51 75 154
51 76 251
51 77 48
51 78 51
51 79 161
51 80 233
51 81 237
51 82 165
51 83 225
51 84 21
51 85 228
51 86 108
51 87 22
51 88 250
51 89 207
51 90 30
52 53 127
52 54 101
52 55 1
52 56 77
52 57 2
52 58 145
52 59 251
52 60 240
52 61 184
52 62 242
52 63 128
52 64 155
52 65 207
52 66 151
52 67 33
52 68 4
52 69 139
52 70 157
52 71 32
52 72 15
52 73 72
52 74 101
52 75 206
52 76 57
52 77 252
52 78 82
52 79 6
52 80 174
52 81 123
52 82 1
52 83 154
52 84 44
52 85 17
52 86 223
52 87 182
52 88 90
52 89 168
52 90 131
53 54 42
53 55 137
53 56 183
53 57 171
53 58 249
53 59 12
53 60 268
53 61 118
53 62 28
53 63 194
53 64 202
53 65 132
53 66 100
53 67 96
53 68 246
53 69 25
53 70 174
53 71 148
53 72 48
53 73 260
53 74 22
53 75 197
53 76 32
53 77 189
53 78 259
53 79 242
53 80 143
53 81 214
53 82 149
53 83 195
53 84 268
53 85 212
53 86 94
53 87 169
53 88 204
53 89 198
53 90 67
54 55 121
54 56 131
54 57 13
54 58 36
54 59 200
54 60 256
54 61 12
54 62 100
54 63 37
54 64 250
54 65 42
54 66 65
54 67 12
54 68 140
54 69 196
54 70 152
54 71 238
54 72 10
54 73 88
54 74 14
54 75 169
54 76 146
54 77 68
54 78 173
54 79 157
54 80 203
54 81 85
54 82 245
54 83 22
54 84 108
54 85 2
54 86 0
54 87 21
54 88 251
54 89 20
54 90 32
55 56 232
55 57 175
55 58 30
55 59 50
55 60 32
55 61 79
55 62 232
55 63 108
55 64 151
55 65 252
55 66 81
55 67 37
55 68 152
55 69 150
55 70 99
55 71 9
55 72 65
55 73 103
55 74 148
55 75 186
55 76 69
55 77 85
55 78 15
55 79 197
55 80 73
55 81 14
55 82 57
55 83 227
55 84 161
55 85 10
55 86 179
55 87 234
55 88 240
55 89 214
55 90 203
56 57 64
56 58 2
56 59 99
56 60 188
56 61 99
56 62 246
56 63 135
56 64 102
56 65 10
56 66 135
56 67 183
56 68 31
56 69 231
56 70 174
56 71 95
56 72 13
56 73 192
56 74 55
56 75 159
56 76 176
56 77 119
56 78 15
56 79 139
56 80 210
56 81 268
56 82 161
56 83 138
56 84 214
56 85 7
56 86 205
56 87 59
56 88 128
56 89 45
56 90 174
57 58 195
57 59 268
57 60 68
57 61 55
57 62 69
57 63 238
57 64 116
57 65 159
57 66 21
57 67 62
57 68 156
57 69 190
57 70 12
57 71 194
57 72 101
57 73 150
57 74 154
57 75 38
57 76 230
57 77 248
57 78 110
57 79 32
57 80 148
57 81 82
57 82 107
57 83 219
57 84 125
57 85 50
57 86 162
57 87 63
57 88 24
57 89 156
57 90 241
58 59 129
58 60 170
58 61 167
58 62 41
58 63 29
58 64 102
58 65 223
58 66 124
58 67 162
58 68 107
58 69 101
58 70 163
58 71 91
58 72 204
58 73 130
58 74 50
58 75 111
58 76 19
58 77 50
58 78 152
58 79 115
58 80 197
58 81 169
58 82 163
58 83 150
58 84 172
58 85 179
58 86 127
58 87 185
58 88 266
58 89 42
58 90 118
59 60 200
59 61 36
59 62 15
59 63 57
59 64 124
59 65 129
59 66 148
59 67 120
59 68 6
59 69 201
59 70 155
59 71 103
59 72 78
59 73 130
59 74 134
59 75 44
59 76 26
59 77 154
59 78 65
59 79 191
59 80 13
59 81 130
59 82 5
59 83 41
59 84 184
59 85 88
59 86 96
59 87 124
59 88 177
59 89 188
59 90 178
60 61 259
60 62 102
60 63 150
60 64 19
60 65 58
60 66 53
60 67 125
60 68 159
60 69 60
60 70 183
60 71 40
60 72 170
60 73 28
60 74 138
60 75 66
60 76 151
60 77 95
60 78 47
60 79 209
60 80 217
60 81 110
60 82 100
60 83 37
60 84 264
60 85 75
60 86 85
60 87 215
60 88 44
60 89 208
60 90 50
61 62 125
61 63 159
61 64 36
61 65 75
61 66 158
61 67 176
61 68 142
61 69 249
61 70 234
61 71 39
61 72 239
61 73 20
61 74 254
61 75 254
61 76 261
61 77 63
61 78 158
61 79 163
61 80 137
61 81 129
61 82 3
61 83 170
61 84 192
61 85 152
61 86 61
61 87 125
61 88 28
61 89 165
61 90 159
62 63 112
62 64 12
62 65 70
62 66 209
62 67 164
62 68 96
62 69 264
62 70 86
62 71 44
62 72 205
62 73 137
62 74 111
62 75 143
62 76 140
62 77 202
62 78 214
62 79 111
62 80 253
62 81 167
62 82 42
62 83 8
62 84 259
62 85 183
62 86 245
62 87 183
62 88 205
62 89 23
62 90 65
63 64 20
63 65 109
63 66 19
63 67 255
63 68 129
63 69 256
63 70 234
63 71 221
63 72 80
63 73 2
63 74 247
63 75 267
63 76 10
63 77 230
63 78 260
63 79 229
63 80 197
63 81 75
63 82 34
63 83 221
63 84 56
63 85 200
63 86 212
63 87 23
63 88 260
63 89 137
63 90 266
64 65 74
64 66 68
64 67 157
64 68 114
64 69 205
64 70 9
64 71 264
64 72 166
64 73 25
64 74 60
64 75 224
64 76 45
64 77 145
64 78 13
64 79 28
64 80 115
64 81 115
64 82 73
64 83 225
64 84 176
64 85 72
64 86 246
64 87 66
64 88 219
64 89 152
64 90 28
65 66 146
65 67 178
65 68 143
65 69 151
65 70 215
65 71 11
65 72 194
65 73 222
65 74 6
65 75 131
65 76 67
65 77 24
65 78 87
65 79 108
65 80 167
65 81 50
65 82 204
65 83 37
65 84 28
65 85 116
65 86 88
65 87 203
65 88 131
65 89 117
65 90 168
66 67 59
66 68 163
66 69 213
66 70 147
66 71 6
66 72 230
66 73 100
66 74 65
66 75 50
66 76 267
66 77 134
66 78 56
66 79 197
66 80 21
66 81 173
66 82 250
66 83 258
66 84 132
66 85 250
66 86 67
66 87 156
66 88 147
66 89 73
66 90 44
67 68 2
67 69 23
67 70 264
67 71 211
67 72 178
67 73 115
67 74 216
67 75 263
67 76 120
67 77 125
67 78 205
67 79 211
67 80 95
67 81 163
67 82 207
67 83 107
67 84 242
67 85 249
67 86 202
67 87 104
67 88 105
67 89 67
67 90 101
68 69 133
68 70 168
68 71 183
68 72 94
68 73 268
68 74 255
68 75 171
68 76 84
68 77 38
68 78 62
68 79 96
68 80 196
68 81 233
68 82 8
68 83 47
68 84 59
68 85 103
68 86 7
68 87 251
68 88 130
68 89 78
68 90 174
69 70 226
69 71 196
69 72 7
69 73 165
69 74 116
69 75 230
69 76 233
69 77 45
69 78 145
69 79 46
69 80 218
69 81 201
69 82 168
69 83 148
69 84 35
69 85 195
69 86 196
69 87 181
69 88 177
69 89 234
69 90 70
70 71 78
70 72 79
70 73 155
70 74 224
70 75 25
70 76 15
70 77 67
70 78 90
70 79 209
70 80 90
70 81 192
70 82 98
70 83 264
70 84 243
70 85 260
70 86 74
70 87 120
70 88 53
70 89 9
70 90 67
71 72 81
71 73 233
71 74 58
71 75 18
71 76 85
71 77 215
71 78 250
71 79 102
71 80 109
71 81 213
71 82 223
71 83 123
71 84 133
71 85 247
71 86 214
71 87 198
71 88 6
71 89 250
71 90 224
72 73 255
72 74 75
72 75 6
72 76 214
72 77 56
72 78 97
72 79 171
72 80 127
72 81 109
72 82 217
72 83 176
72 84 193
72 85 186
72 86 35
72 87 175
72 88 220
72 89 43
72 90 51
73 74 92
73 75 154
73 76 260
73 77 253
73 78 215
73 79 215
73 80 9
73 81 78
73 82 156
73 83 35
73 84 206
73 85 2
73 86 88
73 87 196
73 88 145
73 89 103
73 90 79
74 75 39
74 76 124
74 77 257
74 78 50
74 79 150
74 80 164
74 81 208
74 82 117
74 83 179
74 84 75
74 85 248
74 86 49
74 87 42
74 88 23
74 89 174
74 90 112
75 76 4
75 77 152
75 78 108
75 79 237
75 80 226
75 81 251
75 82 232
75 83 252
75 84 91
75 85 172
75 86 242
75 87 176
75 88 140
75 89 36
75 90 50
76 77 28
76 78 256
76 79 263
76 80 217
76 81 45
76 82 198
76 83 27
76 84 87
76 85 211
76 86 103
76 87 231
76 88 246
76 89 30
76 90 38
77 78 3
77 79 6
77 80 125
77 81 188
77 82 105
77 83 3
77 84 123
77 85 166
77 86 49
77 87 0
77 88 37
77 89 136
77 90 231
78 79 124
78 80 85
78 81 126
78 82 101
78 83 177
78 84 35
78 85 197
78 86 109
78 87 132
78 88 152
78 89 261
78 90 26
79 80 11
79 81 213
79 82 187
79 83 227
79 84 215
79 85 239
79 86 232
79 87 64
79 88 215
79 89 30
79 90 68
80 81 202
80 82 238
80 83 167
80 84 26
80 85 99
80 86 179
80 87 142
80 88 112
80 89 135
80 90 41
81 82 157
81 83 138
81 84 31
81 85 186
81 86 195
81 87 45
81 88 197
81 89 243
81 90 134
82 83 81
82 84 190
82 85 137
82 86 195
82 87 204
82 88 241
82 89 24
82 90 99
83 84 229
83 85 112
83 86 109
83 87 186
83 88 145
83 89 36
83 90 86
84 85 165
84 86 244
84 87 72
84 88 172
84 89 182
84 90 241
85 86 107
85 87 5
85 88 140
85 89 44
85 90 13
86 87 122
86 88 215
86 89 260
86 90 197
87 88 151
87 89 206
87 90 236
88 89 175
88 90 50
89 90 148
